NAME          DCAP_3_4_2_500_SS24
ROWS
 N  OBJ
 L  CON1
 L  CON2
 L  CON3
 L  CON4
 L  CON5
 L  CON6
 L  CON7
 L  CON8
 L  CON9
 L  CON10
 L  CON11
 L  CON12
 E  CON13
 E  CON14
 E  CON15
 E  CON16
 E  CON17
 E  CON18
 E  CON19
 E  CON20
COLUMNS
    x[1,1]    OBJ       6.180167      CON1      1.000000    
    x[1,1]    CON7      -1.000000     CON8      -1.000000   
    x[1,2]    OBJ       5.039546      CON2      1.000000    
    x[1,2]    CON8      -1.000000   
    x[2,1]    OBJ       6.732585      CON3      1.000000    
    x[2,1]    CON9      -1.000000     CON10     -1.000000   
    x[2,2]    OBJ       7.443064      CON4      1.000000    
    x[2,2]    CON10     -1.000000   
    x[3,1]    OBJ       6.563535      CON5      1.000000    
    x[3,1]    CON11     -1.000000     CON12     -1.000000   
    x[3,2]    OBJ       6.054841      CON6      1.000000    
    x[3,2]    CON12     -1.000000   
    MARKER    'MARKER'                'INTORG'
    u[1,1]    OBJ       48.076654     CON1      -1.000000   
    u[1,2]    OBJ       49.466655     CON2      -1.000000   
    u[2,1]    OBJ       49.996186     CON3      -1.000000   
    u[2,2]    OBJ       32.230043     CON4      -1.000000   
    u[3,1]    OBJ       20.066487     CON5      -1.000000   
    u[3,2]    OBJ       27.484319     CON6      -1.000000   
    y[1,1,1]  OBJ       5.148990      CON7      0.722473    
    y[1,1,1]  CON13     1.000000    
    y[1,1,2]  OBJ       5.167755      CON8      1.393447    
    y[1,1,2]  CON14     1.000000    
    y[1,2,1]  OBJ       5.458558      CON7      0.841036    
    y[1,2,1]  CON15     1.000000    
    y[1,2,2]  OBJ       9.999295      CON8      0.776129    
    y[1,2,2]  CON16     1.000000    
    y[1,3,1]  OBJ       8.145503      CON7      0.919441    
    y[1,3,1]  CON17     1.000000    
    y[1,3,2]  OBJ       5.065673      CON8      1.461782    
    y[1,3,2]  CON18     1.000000    
    y[1,4,1]  OBJ       8.664661      CON7      0.998083    
    y[1,4,1]  CON19     1.000000    
    y[1,4,2]  OBJ       9.533541      CON8      0.698363    
    y[1,4,2]  CON20     1.000000    
    y[2,1,1]  OBJ       9.230155      CON9      0.722473    
    y[2,1,1]  CON13     1.000000    
    y[2,1,2]  OBJ       9.094294      CON10     1.393447    
    y[2,1,2]  CON14     1.000000    
    y[2,2,1]  OBJ       5.083272      CON9      0.841036    
    y[2,2,1]  CON15     1.000000    
    y[2,2,2]  OBJ       6.056939      CON10     0.776129    
    y[2,2,2]  CON16     1.000000    
    y[2,3,1]  OBJ       7.308914      CON9      0.919441    
    y[2,3,1]  CON17     1.000000    
    y[2,3,2]  OBJ       6.552911      CON10     1.461782    
    y[2,3,2]  CON18     1.000000    
    y[2,4,1]  OBJ       9.507136      CON9      0.998083    
    y[2,4,1]  CON19     1.000000    
    y[2,4,2]  OBJ       9.814106      CON10     0.698363    
    y[2,4,2]  CON20     1.000000    
    y[3,1,1]  OBJ       5.371797      CON11     0.722473    
    y[3,1,1]  CON13     1.000000    
    y[3,1,2]  OBJ       7.434413      CON12     1.393447    
    y[3,1,2]  CON14     1.000000    
    y[3,2,1]  OBJ       6.238583      CON11     0.841036    
    y[3,2,1]  CON15     1.000000    
    y[3,2,2]  OBJ       7.476312      CON12     0.776129    
    y[3,2,2]  CON16     1.000000    
    y[3,3,1]  OBJ       7.250461      CON11     0.919441    
    y[3,3,1]  CON17     1.000000    
    y[3,3,2]  OBJ       5.058579      CON12     1.461782    
    y[3,3,2]  CON18     1.000000    
    y[3,4,1]  OBJ       6.101330      CON11     0.998083    
    y[3,4,1]  CON19     1.000000    
    y[3,4,2]  OBJ       9.923398      CON12     0.698363    
    y[3,4,2]  CON20     1.000000    
    z[1,1]    OBJ       772.252425    CON13     1.000000    
    z[1,2]    OBJ       581.842517    CON14     1.000000    
    z[2,1]    OBJ       804.946699    CON15     1.000000    
    z[2,2]    OBJ       798.423449    CON16     1.000000    
    z[3,1]    OBJ       671.862917    CON17     1.000000    
    z[3,2]    OBJ       543.652838    CON18     1.000000    
    z[4,1]    OBJ       597.964217    CON19     1.000000    
    z[4,2]    OBJ       671.186373    CON20     1.000000    
    MARKER    'MARKER'                 'INTEND'
RHS
    RHS       CON1      -0.000000     CON2      -0.000000   
    RHS       CON3      -0.000000     CON4      -0.000000   
    RHS       CON5      -0.000000     CON6      -0.000000   
    RHS       CON7      -0.000000     CON8      -0.000000   
    RHS       CON9      -0.000000     CON10     -0.000000   
    RHS       CON11     -0.000000     CON12     -0.000000   
    RHS       CON13     1.000000      CON14     1.000000    
    RHS       CON15     1.000000      CON16     1.000000    
    RHS       CON17     1.000000      CON18     1.000000    
    RHS       CON19     1.000000      CON20     1.000000    
BOUNDS
 BV BOUND     u[1,1]  
 BV BOUND     u[1,2]  
 BV BOUND     u[2,1]  
 BV BOUND     u[2,2]  
 BV BOUND     u[3,1]  
 BV BOUND     u[3,2]  
 BV BOUND     y[1,1,1]
 BV BOUND     y[1,1,2]
 BV BOUND     y[1,2,1]
 BV BOUND     y[1,2,2]
 BV BOUND     y[1,3,1]
 BV BOUND     y[1,3,2]
 BV BOUND     y[1,4,1]
 BV BOUND     y[1,4,2]
 BV BOUND     y[2,1,1]
 BV BOUND     y[2,1,2]
 BV BOUND     y[2,2,1]
 BV BOUND     y[2,2,2]
 BV BOUND     y[2,3,1]
 BV BOUND     y[2,3,2]
 BV BOUND     y[2,4,1]
 BV BOUND     y[2,4,2]
 BV BOUND     y[3,1,1]
 BV BOUND     y[3,1,2]
 BV BOUND     y[3,2,1]
 BV BOUND     y[3,2,2]
 BV BOUND     y[3,3,1]
 BV BOUND     y[3,3,2]
 BV BOUND     y[3,4,1]
 BV BOUND     y[3,4,2]
 BV BOUND     z[1,1]  
 BV BOUND     z[1,2]  
 BV BOUND     z[2,1]  
 BV BOUND     z[2,2]  
 BV BOUND     z[3,1]  
 BV BOUND     z[3,2]  
 BV BOUND     z[4,1]  
 BV BOUND     z[4,2]  
ENDATA
